p tw 130 300
0 1
0 2
0 21
0 30
0 39
0 40
0 49
0 50
0 78
0 79
0 84
0 105
0 75
0 106
0 70
0 125
0 88
0 128
1 2
1 24
1 118
2 23
2 90
3 4
3 5
3 6
3 79
4 5
4 35
4 87
5 17
5 36
5 37
5 38
5 51
5 52
5 63
5 64
5 56
5 68
5 33
5 76
5 103
5 119
5 74
5 113
5 8
5 123
6 7
6 8
6 70
6 71
6 28
6 43
6 81
6 84
6 20
6 92
6 26
6 61
6 37
6 122
6 79
6 89
6 115
7 8
7 35
7 66
8 123
9 10
9 11
9 30
9 35
10 11
10 12
10 13
10 50
10 53
10 14
10 58
10 48
10 69
10 60
10 86
10 102
10 103
10 36
10 107
10 31
10 110
12 13
12 22
12 23
14 15
14 16
14 58
15 16
15 24
15 44
16 42
16 43
16 54
16 55
16 71
16 80
16 83
16 97
16 52
16 104
16 57
16 111
16 109
16 120
16 25
16 64
16 78
16 124
17 18
17 19
17 36
18 19
18 23
18 77
19 20
19 21
19 56
19 57
19 34
19 53
19 81
19 82
19 80
19 85
19 90
19 91
19 100
19 101
19 116
19 127
20 21
20 92
21 30
22 23
22 24
22 51
23 31
23 32
23 45
23 46
23 61
23 62
23 77
23 47
23 83
23 73
23 89
23 101
23 121
23 125
23 129
23 90
24 25
24 26
24 44
24 59
24 60
24 72
24 73
24 67
24 75
24 55
24 95
24 96
24 97
24 41
24 98
24 65
24 99
24 46
24 102
24 118
24 51
24 32
24 120
25 26
25 64
26 61
27 28
27 29
27 65
27 66
27 54
27 74
27 45
27 112
27 115
27 116
27 117
27 118
27 82
27 94
27 77
27 126
28 29
28 43
29 35
29 41
30 35
31 32
31 110
32 120
33 34
33 35
33 76
34 35
34 53
35 41
35 47
35 48
35 38
35 67
35 66
35 87
35 68
35 88
35 93
35 94
35 39
35 58
35 108
35 109
35 113
35 114
35 86
35 100
36 107
37 38
37 122
38 67
39 40
39 58
41 98
42 43
45 46
45 112
46 102
47 48
47 83
48 69
49 50
50 53
51 52
52 104
54 55
54 74
55 95
56 57
56 68
57 111
59 60
60 86
61 62
63 64
65 66
65 99
67 75
68 88
70 71
70 125
71 80
72 73
73 89
74 113
75 106
77 126
78 79
78 124
80 85
81 82
81 84
82 94
83 97
84 105
86 100
88 128
89 115
90 91
93 94
96 97
100 101
101 121
102 103
103 119
108 109
109 120
113 114
115 116
116 127
117 118
125 129
